(set-info :smt-lib-version 2.6)
(set-logic QF_S)
(set-info :source |
Generated by: Shaoke Cui
Generated on: 2025-04-10
Application: Using String Solvers to solve string matching problems
Target solver: Z3, Z3alpha, Z3-noodler
Benchmarks for string matching problem with wildcards, which needs to determine whether two strings containing two wildcards can match.
Use re.allchar and (re.* re.allchar) to represent wildcards.
Determine whether the two strings match by judging whether the result of re.inter is re.none.
|)
(set-info :license "https://creativecommons.org/licenses/by/4.0/")
(set-info :category "crafted")
(set-info :status unknown)
(assert (= re.none (re.inter  (re.++ (str.to_re "ossgoevmijzrklthcmgnllqatskectn") (re.* re.allchar) (str.to_re "axnkfaujdug") (re.* re.allchar) (str.to_re "xdyhnrspbnavfwq") re.allchar (str.to_re "vpikwcxzojmwsfxaomtvxwmnacf") re.allchar (str.to_re "rm") (re.* re.allchar) (str.to_re "znctgqlfbtumcd") (re.* re.allchar) (str.to_re "szbmgujtvujxjflxzopgsqgja") re.allchar (str.to_re "vpqt") re.allchar (str.to_re "hknty") (re.* re.allchar) (str.to_re "f") (re.* re.allchar) (str.to_re "jrnksue") (re.* re.allchar) re.allchar (str.to_re "slxvobpbcyzsgewzyigbiu") re.allchar (str.to_re "uwjpehkgbrhsjw") (re.* re.allchar) (str.to_re "bnlirixzwmxcpz") re.allchar (str.to_re "ouctuitvlkowhtemrpqxucjbftmih") re.allchar (str.to_re "oocak") (re.* re.allchar) (str.to_re "xr") re.allchar (str.to_re "w") re.allchar (str.to_re "vythcb") (re.* re.allchar) (str.to_re "f") re.allchar (str.to_re "goewxr") re.allchar (str.to_re "hfnjijsmjdkwnwwog") re.allchar re.allchar (str.to_re "u") re.allchar (str.to_re "ctnlykdqjokstdwaxbofaduspilgcmt") (re.* re.allchar) (str.to_re "wgof") re.allchar (str.to_re "fldiaoj") re.allchar (str.to_re "qzbsvukutyijidrztt") re.allchar (str.to_re "ijfjmgpqqqsykubbmenlgmltefrnunkzanwauauxejxemhojcholwaibrvpvptcrlpouvquppsfifusbyyzxiwvc") (re.* re.allchar) (str.to_re "cxqaqc") (re.* re.allchar) (str.to_re "en") re.allchar (str.to_re "m") (re.* re.allchar) (str.to_re "flrvvdnmccpcfmmyresk") re.allchar (str.to_re "bwjegjioagef") (re.* re.allchar) (str.to_re "y") re.allchar (str.to_re "a") (re.* re.allchar) (str.to_re "jjylydeupnwoi") (re.* re.allchar) (str.to_re "pdpfk") re.allchar (str.to_re "qfvjuzilqjcxyixn") re.allchar (str.to_re "ouwvssntwnp") (re.* re.allchar) (str.to_re "wotekrrb") (re.* re.allchar) (str.to_re "b") (re.* re.allchar) (str.to_re "mfwrplgrgfmekiyetnkciprjlzoobaueaexanydqwfhtubxxs") re.allchar (str.to_re "bgqkbxbqcvteqcxgufwgoinbuddqgkho") (re.* re.allchar) re.allchar (str.to_re "sffhnv") (re.* re.allchar) (str.to_re "sbfudvhh") re.allchar (str.to_re "vfyoapkmhytbcul") (re.* re.allchar) (re.* re.allchar) (str.to_re "nwtherzsumruzvhcfgyddviuqddgrabt") (re.* re.allchar) re.allchar (str.to_re "ogwjmbkpaipyogmcuwmp") re.allchar (str.to_re "lqawhpnoxvnxdswh") (re.* re.allchar) (str.to_re "irprnzvbx") (re.* re.allchar) (str.to_re "lifkuwedlm") re.allchar (str.to_re "mrnwwhxkvhxucnpicldcb") re.allchar (str.to_re "chwwphnogdtzbekrnbhmnfxo") (re.* re.allchar) (str.to_re "fpwbuwldhctnkkolmijphalgbcasvchxcfnmsprqgiqoifdjqmw") re.allchar (str.to_re "ffaynxywnvokeyjmosnuysskvmbiqti") (re.* re.allchar) (str.to_re "oevgfbklo") re.allchar (str.to_re "vpctimipjaqtjdimtymuujqtruiojcgevembayugdczhrrrcdrryypbcrqaqfpahtp") re.allchar (str.to_re "ofupntx") (re.* re.allchar) (str.to_re "vquurjoe") (re.* re.allchar) (str.to_re "cnjwgmiyjfqsreyrfzdvaaouzyptlbltkpucpwnbfl") (re.* re.allchar) (str.to_re "vkfgos") (re.* re.allchar) (str.to_re "x") (re.* re.allchar) (str.to_re "glcyuzhvuo") (re.* re.allchar) (str.to_re "bxgiu") (re.* re.allchar) (str.to_re "z") re.allchar (str.to_re "lmucuhwfutauwxzwttzovjc") re.allchar (str.to_re "hzvkwwrfeqgznnb") re.allchar (str.to_re "wvyjhmyzg") (re.* re.allchar) (str.to_re "lztslut") re.allchar (str.to_re "tqeobrcrcwcpttqbhzxqvxuyvjsgtwvtvugwiuvrphofpb") (re.* re.allchar) (str.to_re "ghakphogazoyhzgaxqejljndlsirhnjey") re.allchar (str.to_re "mbbzlcorhadqftajuhzun") (re.* re.allchar) (str.to_re "zfdsshgchoh") (re.* re.allchar) (str.to_re "xcvtridekowfeqrhpg") (re.* re.allchar) (str.to_re "k") re.allchar (str.to_re "kdoxfxljpzbvntk") re.allchar (str.to_re "jafzbasarnyiwzzpndxeexx") (re.* re.allchar) (str.to_re "xjqcqlalmxugihqefx") re.allchar (str.to_re "iyjioxeaqfqcnz") (re.* re.allchar) (str.to_re "o") re.allchar (str.to_re "hynro") re.allchar re.allchar (str.to_re "ceurwcxzvoapzyrotmh") (re.* re.allchar) (str.to_re "csgvv") re.allchar (str.to_re "ojzme") re.allchar (str.to_re "uqlbmdvh") re.allchar (str.to_re "vkdv") (re.* re.allchar) (str.to_re "dlrdonkd") re.allchar (str.to_re "gc") (re.* re.allchar) (str.to_re "uksxhqkav") re.allchar (str.to_re "mcjijvwqsljvhn") (re.* re.allchar) (str.to_re "fsfhsvodkerasxjilzilbvcakdcnpymoodtyjhaxllkbonwcg") re.allchar (str.to_re "jhjooyflrwroyqylkhjbgicdhyyxta") (re.* re.allchar) (str.to_re "ffsslqfdrflelie") (re.* re.allchar) (str.to_re "z") re.allchar (str.to_re "nqxgraoui") re.allchar (str.to_re "bqevqqkafqnlknh") re.allchar (str.to_re "lljknlefictcbxoshcmpo") re.allchar (str.to_re "fujavawfqxoehdnclsutgzytm") (re.* re.allchar) (re.* re.allchar) (str.to_re "dniyxwdvnnln") re.allchar (str.to_re "gpxcoebuiboloyn") re.allchar (str.to_re "mdwhnkhdsk") (re.* re.allchar) (str.to_re "btdlkcaedcvqfaoonupubpjmgsijtksfinhwqujquivhhxrsefrzoupgqmtgu") (re.* re.allchar) (str.to_re "hgbciultkmevajynguqphcgqycsvrfjiacufucbuamojqhyoxaf") (re.* re.allchar) (str.to_re "qzlpiwaorrwzmgq") (re.* re.allchar) (str.to_re "tvvu") (re.* re.allchar) (str.to_re "jlchwlknywmlbqjss") re.allchar (str.to_re "wkxnvlupatpxemmbxdamgkfarwnxuwwowpeozcjabqbwnraufighljtrsotdhcacz") (re.* re.allchar) re.allchar (str.to_re "uyhwuliqkmvdlqtspxzjygumudxoyqufgmfebktrj") (re.* re.allchar) (str.to_re "r") (re.* re.allchar) (str.to_re "urvmdlo") (re.* re.allchar) (str.to_re "glwvtcjnqfhojjxg") (re.* re.allchar) (str.to_re "qkw") (re.* re.allchar) (str.to_re "m") re.allchar (str.to_re "krrk") (re.* re.allchar) (str.to_re "fq") re.allchar (str.to_re "heoawztdgnfsepklt") (re.* re.allchar) (str.to_re "zsykmlisgfveeskgkg") (re.* re.allchar) (str.to_re "gba") re.allchar (str.to_re "ay") re.allchar (str.to_re "sxedsweawqtqowlohhdwcenaovuqdbtfnuoxwrtrrlhnjno") (re.* re.allchar) (str.to_re "yioyhepsmlqjj") re.allchar (str.to_re "gzbevtb") (re.* re.allchar) (str.to_re "muhnmhhtoamvelgutxdxvfgzqfawwuxvzdgfacgwpn") (re.* re.allchar) (str.to_re "gfynsuwpt") (re.* re.allchar) (str.to_re "gnfranzivhptngvqilvgqhcoupbxcbtj") re.allchar (str.to_re "ozqqv") (re.* re.allchar) (str.to_re "ewpoystnnqqemtlhmupxznmmyjtmlrtqhdtqwwlicjgzalivrisivlcoldjliifgvpnlxxsqknoszyevtofrekwnblgdjn") (re.* re.allchar) (str.to_re "rkafvzlkttnjsuqzpwrvjgumhjztetu") re.allchar (str.to_re "qlvpwrzvqez") re.allchar (str.to_re "gu") re.allchar (str.to_re "glkwefegogzmxdxgwjwag") re.allchar (str.to_re "tcrjgchmwezhzdidtlvwphy") (re.* re.allchar) (str.to_re "ovz") (re.* re.allchar) (str.to_re "dgkor") (re.* re.allchar) (str.to_re "yewgycufcmjciqokwidwiwnnypod") re.allchar (str.to_re "rt") re.allchar (str.to_re "ohndwk") re.allchar (str.to_re "bccmzpozdjisenqyodfikconrslkmrjai") (re.* re.allchar) (str.to_re "f") (re.* re.allchar) (str.to_re "kulugu") (re.* re.allchar) (str.to_re "kjpfdovx") (re.* re.allchar) (str.to_re "spaufqnoldtksmqqartx") re.allchar (str.to_re "toebwkfavheorpsuxpoaarzhnjjmculrqycxddjfporxavgwzcfliixbhbarlhbrjotyx") re.allchar (str.to_re "oiel") re.allchar (str.to_re "mgqwymjkmcozbmrvulowkakpkb") (re.* re.allchar) (str.to_re "dh") re.allchar (str.to_re "bynbpbkicprhxzrzutdp") (re.* re.allchar) (str.to_re "bxytdvnggntudgzlzarf") re.allchar (str.to_re "c") re.allchar (str.to_re "ukhizehfup") re.allchar (str.to_re "wandpnbcgiqkcfkylxcaizzrxbcknuydhffvlzczmz") re.allchar (str.to_re "voyaksfg") re.allchar (str.to_re "cnp") re.allchar (str.to_re "nxb") re.allchar (re.* re.allchar) (str.to_re "lnfrqcf") re.allchar (str.to_re "aqnncfgnhifakemy") (re.* re.allchar) (str.to_re "ivzjbauruw") re.allchar (str.to_re "mtgpv") (re.* re.allchar) (str.to_re "xqawgqtplhhzqiqppqpcmomvvlepssvebpejepkwhgkyqxzhfhcpgc") (re.* re.allchar) (str.to_re "erzskizbtvfkvbkoinwhjzmve") (re.* re.allchar) (str.to_re "ydqxfecfsfgvourutysosgcxdky") re.allchar (str.to_re "cywskclc") (re.* re.allchar) (str.to_re "tgzkvkvp") re.allchar (str.to_re "obdkqazobnddzl") re.allchar (str.to_re "cieu") (re.* re.allchar) (str.to_re "lfgmwyjwypxqseucxdvoiwwqsbpeaurd") (re.* re.allchar) (str.to_re "rqgsbnammipvkgmmbawgfmmrldxf") (re.* re.allchar) (str.to_re "nd") re.allchar (str.to_re "akcqjogtjtjdbdnvlpxyxlbfqsysaerxtytzuu") (re.* re.allchar) (str.to_re "ckxl") re.allchar (str.to_re "yfunmlzwkbzhhmxupgddbpxyfe") (re.* re.allchar) (str.to_re "vszvuhxirr") (re.* re.allchar) (str.to_re "rjjuqlgprhfijzaembpkyjrzg") (re.* re.allchar) (str.to_re "stzxi") (re.* re.allchar) (str.to_re "qr") (re.* re.allchar) (str.to_re "myygjwal") (re.* re.allchar) (str.to_re "fkf") (re.* re.allchar) (str.to_re "npyjjechzhdkhepzkbu") re.allchar (str.to_re "dofqjxacdgbcqllcexzrgl") (re.* re.allchar) (str.to_re "ncrfdmpvbtf") re.allchar (str.to_re "cya") (re.* re.allchar) (str.to_re "blbognebmtppvvjkpg") (re.* re.allchar) (str.to_re "mx") re.allchar (str.to_re "pyftw") re.allchar (str.to_re "jo") re.allchar (str.to_re "tvzleadyuffpxu") (re.* re.allchar) (str.to_re "movmug") (re.* re.allchar) (str.to_re "ytyusgllkgfjhghfopxlebx") re.allchar (str.to_re "juqgtznqmfbaqkaqrpbfa") (re.* re.allchar) (str.to_re "ewrkztuzveacndog") (re.* re.allchar) (str.to_re "gtwvnxauoiajfcyciewjaobi") (re.* re.allchar) (str.to_re "wlhkag") (re.* re.allchar) (str.to_re "kff") (re.* re.allchar) (str.to_re "sfrypbh") re.allchar (str.to_re "lvjbcafllrflcsj") (re.* re.allchar) (str.to_re "jlb") (re.* re.allchar) re.allchar (str.to_re "hjbhevieoqglfqejbjhuyqrupw") (re.* re.allchar) (str.to_re "vfm") (re.* re.allchar) (str.to_re "stzgrbbmhjgwu") (re.* re.allchar) (str.to_re "cadebtmivwdcflnayjezak") (re.* re.allchar) (str.to_re "uynuvbijdf") (re.* re.allchar) (str.to_re "j") (re.* re.allchar) (str.to_re "vz") re.allchar (str.to_re "lron") (re.* re.allchar) (str.to_re "nirogliddcsxyzng") re.allchar (str.to_re "cvuqpxoy") re.allchar (re.* re.allchar) (str.to_re "mjiandvcxuevaftp") (re.* re.allchar) (str.to_re "cydu") re.allchar re.allchar (str.to_re "hqgnregnzgpgqsg") (re.* re.allchar) (str.to_re "zdqjuk") re.allchar (str.to_re "unqfefi") re.allchar (str.to_re "aedgtvyrxhw") re.allchar (str.to_re "dirggkstoxdtsvc") re.allchar re.allchar (str.to_re "xsrpbybwnofdrwrtzkga") re.allchar (str.to_re "f") (re.* re.allchar) (str.to_re "jwg") (re.* re.allchar) (str.to_re "cgj") (re.* re.allchar) (str.to_re "ksbpsuzf") (re.* re.allchar) (str.to_re "wpqxphhvqpviibzncojddtypyptvzjxvvgfnttstvzsvlzttogztx") (re.* re.allchar) (str.to_re "ipkhsfkugdup") re.allchar (str.to_re "ugtxxegljsytur") (re.* re.allchar) (str.to_re "ompz") re.allchar (str.to_re "qcsckxczogih") re.allchar (re.* re.allchar) (str.to_re "bw") re.allchar (re.* re.allchar) (str.to_re "iidjjtfaxgy") re.allchar (str.to_re "oxblelx") re.allchar (str.to_re "mqblvwzf") (re.* re.allchar) (str.to_re "ceh") (re.* re.allchar) (str.to_re "blrwqbugdtqjkhibpyvkrha") (re.* re.allchar) (str.to_re "ebjmwsrzcssv") (re.* re.allchar) (str.to_re "sqfvgfgck") (re.* re.allchar) (str.to_re "fhnitlqeapnkpiruegrl") re.allchar (str.to_re "fgiheefytvj") (re.* re.allchar) (str.to_re "pyiqkxkzkxksivsvaj") (re.* re.allchar) (str.to_re "bsjucmobjnp") re.allchar (str.to_re "vdcnkhydunnetjwuqnzmwxuwkdqkz") re.allchar (str.to_re "ewuny") (re.* re.allchar) (str.to_re "clprfss") re.allchar (str.to_re "bilplkajbbfjjeayoxdpeubzqlxlnzvultkdsv") re.allchar (str.to_re "lp") re.allchar (str.to_re "snnyzn") (re.* re.allchar) (str.to_re "sxmcaguoazjiejchqtgu") re.allchar (str.to_re "jxefvodtrmpknjqrmea") re.allchar (str.to_re "ry") re.allchar (str.to_re "agqf") re.allchar (str.to_re "xjghep") (re.* re.allchar) (str.to_re "auvpdtruflalurmxulyydvhpvcsqqxljmeutmtsdfdsvbjpxjzwospqlqaeqbbq") re.allchar (str.to_re "fpiiymwocvzchzn") re.allchar (str.to_re "oayj") (re.* re.allchar) (str.to_re "fitdacdw") (re.* re.allchar) (str.to_re "hktkzw") (re.* re.allchar) (str.to_re "oqrohlpu") re.allchar (str.to_re "xrjzvtwspxwdldbxkautnrahzoecofw") (re.* re.allchar) (str.to_re "giyfeygmdqmokiyktpdi") re.allchar re.allchar (str.to_re "geymowsfooatayxexo") (re.* re.allchar) (str.to_re "zifnouxhipnskcgattiiceeowoacmzt") re.allchar (str.to_re "gweacfkyvghlfxtuulzzuvfhefklqukrqbcoxnqzfta") re.allchar (str.to_re "lzktsobdsxgyykvwfywjkkehljsojzocx") re.allchar (str.to_re "nzrdn") (re.* re.allchar) (str.to_re "dpz") re.allchar (str.to_re "yyyzhsu") re.allchar (str.to_re "lks") re.allchar (str.to_re "nwiazjfgakgedzoxyccrhbkgwwbhjwypdrb") )   (re.++ (str.to_re "wwkhjyirmcx") re.allchar (str.to_re "vfkbhqgqgdffh") re.allchar (str.to_re "phonq") (re.* re.allchar) (str.to_re "ac") (re.* re.allchar) (re.* re.allchar) (str.to_re "zagebsslzpnhzemflpxsqiymdlye") (re.* re.allchar) (str.to_re "sdwpslifshjlchumgxfopicttu") re.allchar (str.to_re "ezoyshplaqgqrtbi") re.allchar (str.to_re "jb") (re.* re.allchar) (str.to_re "rozegol") (re.* re.allchar) (str.to_re "goa") re.allchar (str.to_re "ankgitzg") re.allchar (str.to_re "udujbnyoheyomadrnegspipcqedykhlsoimxrdfmcxnghgycqyuuduyt") re.allchar (str.to_re "hvukhxrdldtnwdjurqmuwpexhdbnxbojzqymjnlcdbxwwhppneaxxrdtcpjjetdkof") re.allchar (str.to_re "rwjvhvztjfluawqbxoeimcsdch") (re.* re.allchar) (str.to_re "urjha") re.allchar (str.to_re "sdmobqh") re.allchar (str.to_re "kqaspa") re.allchar (str.to_re "phgwnddr") re.allchar (str.to_re "nrawxfca") re.allchar (re.* re.allchar) (str.to_re "ucbqhoxbhinhkew") re.allchar (str.to_re "yhn") re.allchar (str.to_re "pyojadlggprywlp") (re.* re.allchar) (str.to_re "hatvimycswuexgyvghpqbbozkwqwjbefo") re.allchar (str.to_re "qtgpsr") (re.* re.allchar) re.allchar (str.to_re "dbbxqnquzcmluvkgynuwmojmqorlhyuex") (re.* re.allchar) re.allchar (str.to_re "misvnk") (re.* re.allchar) (re.* re.allchar) (str.to_re "ojyasondegfnj") (re.* re.allchar) (str.to_re "owikyvsyjwze") re.allchar (str.to_re "nhzvpmwhrydyyki") (re.* re.allchar) (str.to_re "bd") (re.* re.allchar) (str.to_re "htielkscvdveblpvdoiqaiouspfo") re.allchar (str.to_re "oonfkrg") (re.* re.allchar) (str.to_re "avhoqrpfyhkaeehfgnxjrw") re.allchar (str.to_re "hvycabzleekg") (re.* re.allchar) (str.to_re "kppvlgotojrdi") (re.* re.allchar) (str.to_re "tewxlws") re.allchar (str.to_re "nckpkrixpcczkzegkykhap") re.allchar (str.to_re "yk") re.allchar (str.to_re "cfvswjgvmyrigifblctgguesvolggnhmbkzcriel") re.allchar (str.to_re "gzmr") (re.* re.allchar) (str.to_re "h") (re.* re.allchar) (str.to_re "qy") re.allchar (str.to_re "jozwnpdl") )  )))
(check-sat)
(exit)
